15364
1 0 0 0 0 0 1 1 0 0 0 0 0 0 1 0 0 1 0 0 1 0 0 0 1 0 0 0 0 1 
20 0 20 14 20 0 17 24 14 17 24 20 20 20 17 14 14 17 29 0 14 0 24 17 24 20 17 24 24 24 29 0 6 29 20 20 24 24 0 14 0 14 24 14 24 14 0 20 0 14 29 14 14 0 20 20 17 0 0 14 0 24 20 0 0 0 24 0 24 24 20 6 0 17 24 20 24 20 14 24 20 7 20 17 17 17 17 7 20 29 17 24 17 0 17 24 14 14 29 20 20 17 17 0 17 29 17 0 14 14 14 14 17 0 0 29 24 24 24 24 0 20 0 20 20 0 24 24 0 29 0 0 24 29 20 14 7 29 20 17 0 20 20 14 20 29 0 0 17 24 
